BEGIN IONS
PEPMASS=75.043779432
CHARGE=1+
FILENAME=METWORK_1
SMILES=OC=CCO
INCHI=InChI=1S/C3H6O2/c4-2-1-3-5/h1-2,4-5H,3H2
INCHIAUX=MTTKOBXFUGIESR-UHFFFAOYSA-N
SCANS=1
39.022927 15.183561
43.017841 14.200782
45.033491 10.952286
47.049141 6.422588
57.033491 27.317983
75.044056 9.183412
END IONS

BEGIN IONS
PEPMASS=57.069600256
CHARGE=1+
FILENAME=METWORK_5
SMILES=C=CCC
INCHI=InChI=1S/C4H8/c1-3-4-2/h3H,1,4H2,2H3
INCHIAUX=VXNZUUAINFGPBY-UHFFFAOYSA-N
SCANS=5
15.022927 2.503525
27.022927 1.448634
29.038577 2.078696
41.038577 36.538157
57.069877 57.430988
END IONS

BEGIN IONS
PEPMASS=110.070997224
CHARGE=1+
FILENAME=METWORK_6
SMILES=C=Cc1c[nH]c(N)n1
INCHI=InChI=1S/C5H7N3/c1-2-4-3-7-5(6)8-4/h2-3H,1H2,(H3,6,7,8)
INCHIAUX=QRVPWWHJIUNSOT-UHFFFAOYSA-N
SCANS=6
39.022927 4.720506
41.038577 12.853130
43.029075 3.097940
51.022927 4.036845
52.018175 3.865892
54.033826 7.604233
66.033826 7.387680
68.049476 2.949204
81.044725 3.233109
82.039974 4.364782
83.060375 3.062749
93.044725 13.501353
94.039974 3.678179
110.071274 7.866482
END IONS

BEGIN IONS
PEPMASS=124.086647288
CHARGE=1+
FILENAME=METWORK_7
SMILES=C=Cc1cn(C)c(N)n1
INCHI=InChI=1S/C6H9N3/c1-3-5-4-9(2)6(7)8-5/h3-4H,1H2,2H3,(H2,7,8)
INCHIAUX=KGSAFZMSMZKUMI-UHFFFAOYSA-N
SCANS=7
39.022927 3.162089
43.029075 5.880409
51.022927 3.934527
52.018175 2.053733
53.038577 2.103680
54.033826 7.630471
56.049476 1.994851
66.033826 5.412102
68.049476 3.695425
79.029075 2.137622
81.044725 3.040707
82.065126 2.589420
93.044725 2.919085
95.060375 5.854125
96.055624 3.074723
97.076025 4.565935
107.060375 10.491600
108.055624 3.246297
124.086924 6.771348
END IONS

BEGIN IONS
PEPMASS=124.086647288
CHARGE=1+
FILENAME=METWORK_8
SMILES=C=Cc1c[nH]c(NC)n1
INCHI=InChI=1S/C6H9N3/c1-3-5-4-8-6(7-2)9-5/h3-4H,1H2,2H3,(H2,7,8,9)
INCHIAUX=ZEILOCJPAIBULF-UHFFFAOYSA-N
SCANS=8
15.022927 2.798040
39.022927 5.234896
41.038577 12.444408
51.022927 3.656898
52.018175 1.831594
53.038577 1.888883
54.033826 7.794861
66.033826 4.709493
68.049476 3.535162
70.065126 2.748528
93.044725 9.119648
95.060375 2.691770
96.055624 3.732767
97.076025 2.041262
107.060375 2.681498
108.055624 8.930714
124.086924 5.575608
END IONS

BEGIN IONS
PEPMASS=166.13359748
CHARGE=1+
FILENAME=METWORK_9
SMILES=CCC1CC=C2N=C(N)NC2C1
INCHI=InChI=1S/C9H15N3/c1-2-6-3-4-7-8(5-6)12-9(10)11-7/h4,6,8H,2-3,5H2,1H3,(H3,10,11,12)
INCHIAUX=RDROBEYXHVBTNC-UHFFFAOYSA-N
SCANS=9
39.022927 1.500301
41.038577 4.461864
43.054227 2.451341
55.054227 2.876114
83.085527 2.336299
107.085527 4.112393
108.055624 5.343368
110.071274 3.426227
112.086924 1.957880
114.102574 1.445991
116.118224 1.445991
122.071274 4.046486
122.096426 4.588067
124.086924 2.786993
124.112076 4.509902
136.086924 3.968251
137.107325 1.731368
138.102574 2.213966
139.122975 2.480265
149.107325 14.640534
150.102574 4.925722
166.133874 3.422828
END IONS

BEGIN IONS
PEPMASS=166.13359748
CHARGE=1+
FILENAME=METWORK_10
SMILES=CCC1CCC=C2N=C(N)NC21
INCHI=InChI=1S/C9H15N3/c1-2-6-4-3-5-7-8(6)12-9(10)11-7/h5-6,8H,2-4H2,1H3,(H3,10,11,12)
INCHIAUX=STMUSZBFQUHGCE-UHFFFAOYSA-N
SCANS=10
55.054227 2.213527
79.054227 2.171356
82.039974 1.359849
83.085527 3.340276
105.069877 1.405487
107.085527 4.985421
108.055624 2.008446
110.071274 1.675219
122.071274 2.744058
122.096426 5.206378
124.086924 2.520099
124.112076 5.618283
126.102574 1.760254
136.086924 4.742861
137.107325 1.915924
138.102574 2.616193
139.122975 2.810647
140.118224 1.558150
149.107325 18.044541
150.102574 6.740570
166.133874 5.912336
END IONS

BEGIN IONS
PEPMASS=184.107776656
CHARGE=1+
FILENAME=METWORK_11
SMILES=NC1=NC2=CCC(CO)C(O)C2N1
INCHI=InChI=1S/C8H13N3O2/c9-8-10-5-2-1-4(3-12)7(13)6(5)11-8/h2,4,6-7,12-13H,1,3H2,(H3,9,10,11)
INCHIAUX=WVDCPANSTSGPRO-UHFFFAOYSA-N
SCANS=11
53.038577 2.015049
83.049141 3.091930
94.039974 2.439152
108.055624 8.735690
110.071274 5.963536
112.086924 1.677256
124.050538 1.748674
124.075690 1.567367
134.071274 3.422849
136.086924 3.181776
138.102574 1.278069
139.086589 8.977083
148.086924 22.789244
149.070939 7.221535
166.097488 5.259731
167.081504 1.693872
END IONS

BEGIN IONS
PEPMASS=184.107776656
CHARGE=1+
FILENAME=METWORK_12
SMILES=NC1=NC2=CCC(O)C(CO)C2N1
INCHI=InChI=1S/C8H13N3O2/c9-8-10-5-1-2-6(13)4(3-12)7(5)11-8/h1,4,6-7,12-13H,2-3H2,(H3,9,10,11)
INCHIAUX=FGUQPXZBEHQWPW-UHFFFAOYSA-N
SCANS=12
83.049141 2.729144
94.039974 4.142714
96.055624 2.028824
108.055624 8.342466
110.071274 6.717534
112.086924 2.039029
124.075690 2.823280
136.086924 1.665568
139.086589 9.031239
148.086924 23.412509
149.070939 8.235891
166.097488 8.193873
167.081504 1.993684
END IONS

BEGIN IONS
PEPMASS=219.134994448
CHARGE=1+
FILENAME=METWORK_13
SMILES=NC1=NC2=CCC(c3c[nH]c(N)n3)CC2N1
INCHI=InChI=1S/C10H14N6/c11-9-13-4-8(16-9)5-1-2-6-7(3-5)15-10(12)14-6/h2,4-5,7H,1,3H2,(H3,11,13,16)(H3,12,14,15)
INCHIAUX=SRHGGFIRXLQATH-UHFFFAOYSA-N
SCANS=13
94.039974 3.022291
96.055624 1.896081
108.055624 2.664756
112.086924 1.610913
122.071274 2.483455
136.086924 4.696572
138.102574 2.151265
144.055624 2.049158
146.071274 1.735205
150.102574 1.727426
158.071274 1.631103
160.086924 4.909097
163.097823 3.700171
167.129123 1.668160
175.097823 9.725385
177.113473 5.070458
190.108722 3.112315
192.124372 3.382502
202.108722 23.810126
END IONS

BEGIN IONS
PEPMASS=219.134994448
CHARGE=1+
FILENAME=METWORK_14
SMILES=NC1=NC2=CCCC(c3c[nH]c(N)n3)C2N1
INCHI=InChI=1S/C10H14N6/c11-9-13-4-7(15-9)5-2-1-3-6-8(5)16-10(12)14-6/h3-5,8H,1-2H2,(H3,11,13,15)(H3,12,14,16)
INCHIAUX=HWLWLBXVHCDAJL-UHFFFAOYSA-N
SCANS=14
82.039974 1.227163
94.039974 1.905553
95.060375 1.488982
96.055624 1.231109
124.086924 1.734528
136.086924 3.639709
144.055624 2.289972
146.071274 1.475143
148.086924 1.656374
150.102574 1.640284
158.071274 1.674273
160.086924 4.064079
161.082173 1.301937
163.097823 3.904343
167.129123 1.858333
175.097823 8.645370
177.088321 1.531870
177.113473 6.369369
190.108722 3.126236
192.124372 4.555678
202.108722 23.092674
219.135271 1.827566
END IONS


BEGIN IONS
PEPMASS=103.07507956
CHARGE=1+
FILENAME=METWORK_15
SMILES=COC=CCOC
INCHI=InChI=1S/C5H10O2/c1-6-4-3-5-7-2/h3-4H,5H2,1-2H3
INCHIAUX=AEXFUDAPASFOSW-UHFFFAOYSA-N
SCANS=15
15.022927 5.097744
39.022927 5.711574
41.038577 6.797445
43.054227 7.500815
45.033491 3.939011
57.033491 10.973868
59.049141 13.344565
71.049141 14.296637
73.064791 6.824872
75.080441 7.923450
END IONS

